WARNING: for repeatability, setting FPU to use double precision
============================[ Problem Statistics ]=============================
|                                                                             |
|  Number of variables:            50                                         |
|  Number of clauses:             218                                         |
|  Parse time:                   0.00 s                                       |
|                                                                             |
============================[ Search Statistics ]==============================
| Conflicts |          ORIGINAL         |          LEARNT          | Progress |
|           |    Vars  Clauses Literals |    Limit  Clauses Lit/Cl |          |
===============================================================================
===============================================================================
restarts              : 1
conflicts             : 73             (323009 /sec)
decisions             : 81             (0.00 % random) (358407 /sec)
propagations          : 1007           (4455752 /sec)
conflict literals     : 267            (19.34 % deleted)
Memory used           : 20.00 MB
CPU time              : 0.000226 s

UNSATISFIABLE
